p cnf 175 798
1 2 3 4 5 0
6 7 8 9 10 0
11 12 13 14 15 0
16 17 18 19 20 0
21 22 23 24 25 0
26 27 28 29 30 0
31 32 33 34 35 0
36 37 38 39 40 0
41 42 43 44 45 0
46 47 48 49 50 0
51 52 53 54 55 0
56 57 58 59 60 0
61 62 63 64 65 0
66 67 68 69 70 0
71 72 73 74 75 0
76 77 78 79 80 0
81 82 83 84 85 0
86 87 88 89 90 0
91 92 93 94 95 0
96 97 98 99 100 0
101 102 103 104 105 0
106 107 108 109 110 0
111 112 113 114 115 0
116 117 118 119 120 0
121 122 123 124 125 0
126 127 128 129 130 0
131 132 133 134 135 0
136 137 138 139 140 0
141 142 143 144 145 0
146 147 148 149 150 0
151 152 153 154 155 0
156 157 158 159 160 0
161 162 163 164 165 0
166 167 168 169 170 0
171 172 173 174 175 0
-1 -2 0
-1 -3 0
-1 -4 0
-1 -5 0
-2 -3 0
-2 -4 0
-2 -5 0
-3 -4 0
-3 -5 0
-4 -5 0
-6 -7 0
-6 -8 0
-6 -9 0
-6 -10 0
-7 -8 0
-7 -9 0
-7 -10 0
-8 -9 0
-8 -10 0
-9 -10 0
-11 -12 0
-11 -13 0
-11 -14 0
-11 -15 0
-12 -13 0
-12 -14 0
-12 -15 0
-13 -14 0
-13 -15 0
-14 -15 0
-16 -17 0
-16 -18 0
-16 -19 0
-16 -20 0
-17 -18 0
-17 -19 0
-17 -20 0
-18 -19 0
-18 -20 0
-19 -20 0
-21 -22 0
-21 -23 0
-21 -24 0
-21 -25 0
-22 -23 0
-22 -24 0
-22 -25 0
-23 -24 0
-23 -25 0
-24 -25 0
-26 -27 0
-26 -28 0
-26 -29 0
-26 -30 0
-27 -28 0
-27 -29 0
-27 -30 0
-28 -29 0
-28 -30 0
-29 -30 0
-31 -32 0
-31 -33 0
-31 -34 0
-31 -35 0
-32 -33 0
-32 -34 0
-32 -35 0
-33 -34 0
-33 -35 0
-34 -35 0
-36 -37 0
-36 -38 0
-36 -39 0
-36 -40 0
-37 -38 0
-37 -39 0
-37 -40 0
-38 -39 0
-38 -40 0
-39 -40 0
-41 -42 0
-41 -43 0
-41 -44 0
-41 -45 0
-42 -43 0
-42 -44 0
-42 -45 0
-43 -44 0
-43 -45 0
-44 -45 0
-46 -47 0
-46 -48 0
-46 -49 0
-46 -50 0
-47 -48 0
-47 -49 0
-47 -50 0
-48 -49 0
-48 -50 0
-49 -50 0
-51 -52 0
-51 -53 0
-51 -54 0
-51 -55 0
-52 -53 0
-52 -54 0
-52 -55 0
-53 -54 0
-53 -55 0
-54 -55 0
-56 -57 0
-56 -58 0
-56 -59 0
-56 -60 0
-57 -58 0
-57 -59 0
-57 -60 0
-58 -59 0
-58 -60 0
-59 -60 0
-61 -62 0
-61 -63 0
-61 -64 0
-61 -65 0
-62 -63 0
-62 -64 0
-62 -65 0
-63 -64 0
-63 -65 0
-64 -65 0
-66 -67 0
-66 -68 0
-66 -69 0
-66 -70 0
-67 -68 0
-67 -69 0
-67 -70 0
-68 -69 0
-68 -70 0
-69 -70 0
-71 -72 0
-71 -73 0
-71 -74 0
-71 -75 0
-72 -73 0
-72 -74 0
-72 -75 0
-73 -74 0
-73 -75 0
-74 -75 0
-76 -77 0
-76 -78 0
-76 -79 0
-76 -80 0
-77 -78 0
-77 -79 0
-77 -80 0
-78 -79 0
-78 -80 0
-79 -80 0
-81 -82 0
-81 -83 0
-81 -84 0
-81 -85 0
-82 -83 0
-82 -84 0
-82 -85 0
-83 -84 0
-83 -85 0
-84 -85 0
-86 -87 0
-86 -88 0
-86 -89 0
-86 -90 0
-87 -88 0
-87 -89 0
-87 -90 0
-88 -89 0
-88 -90 0
-89 -90 0
-91 -92 0
-91 -93 0
-91 -94 0
-91 -95 0
-92 -93 0
-92 -94 0
-92 -95 0
-93 -94 0
-93 -95 0
-94 -95 0
-96 -97 0
-96 -98 0
-96 -99 0
-96 -100 0
-97 -98 0
-97 -99 0
-97 -100 0
-98 -99 0
-98 -100 0
-99 -100 0
-101 -102 0
-101 -103 0
-101 -104 0
-101 -105 0
-102 -103 0
-102 -104 0
-102 -105 0
-103 -104 0
-103 -105 0
-104 -105 0
-106 -107 0
-106 -108 0
-106 -109 0
-106 -110 0
-107 -108 0
-107 -109 0
-107 -110 0
-108 -109 0
-108 -110 0
-109 -110 0
-111 -112 0
-111 -113 0
-111 -114 0
-111 -115 0
-112 -113 0
-112 -114 0
-112 -115 0
-113 -114 0
-113 -115 0
-114 -115 0
-116 -117 0
-116 -118 0
-116 -119 0
-116 -120 0
-117 -118 0
-117 -119 0
-117 -120 0
-118 -119 0
-118 -120 0
-119 -120 0
-121 -122 0
-121 -123 0
-121 -124 0
-121 -125 0
-122 -123 0
-122 -124 0
-122 -125 0
-123 -124 0
-123 -125 0
-124 -125 0
-126 -127 0
-126 -128 0
-126 -129 0
-126 -130 0
-127 -128 0
-127 -129 0
-127 -130 0
-128 -129 0
-128 -130 0
-129 -130 0
-131 -132 0
-131 -133 0
-131 -134 0
-131 -135 0
-132 -133 0
-132 -134 0
-132 -135 0
-133 -134 0
-133 -135 0
-134 -135 0
-136 -137 0
-136 -138 0
-136 -139 0
-136 -140 0
-137 -138 0
-137 -139 0
-137 -140 0
-138 -139 0
-138 -140 0
-139 -140 0
-141 -142 0
-141 -143 0
-141 -144 0
-141 -145 0
-142 -143 0
-142 -144 0
-142 -145 0
-143 -144 0
-143 -145 0
-144 -145 0
-146 -147 0
-146 -148 0
-146 -149 0
-146 -150 0
-147 -148 0
-147 -149 0
-147 -150 0
-148 -149 0
-148 -150 0
-149 -150 0
-151 -152 0
-151 -153 0
-151 -154 0
-151 -155 0
-152 -153 0
-152 -154 0
-152 -155 0
-153 -154 0
-153 -155 0
-154 -155 0
-156 -157 0
-156 -158 0
-156 -159 0
-156 -160 0
-157 -158 0
-157 -159 0
-157 -160 0
-158 -159 0
-158 -160 0
-159 -160 0
-161 -162 0
-161 -163 0
-161 -164 0
-161 -165 0
-162 -163 0
-162 -164 0
-162 -165 0
-163 -164 0
-163 -165 0
-164 -165 0
-166 -167 0
-166 -168 0
-166 -169 0
-166 -170 0
-167 -168 0
-167 -169 0
-167 -170 0
-168 -169 0
-168 -170 0
-169 -170 0
-171 -172 0
-171 -173 0
-171 -174 0
-171 -175 0
-172 -173 0
-172 -174 0
-172 -175 0
-173 -174 0
-173 -175 0
-174 -175 0
-3 -130 0
-1 -128 0
-4 -127 0
-2 -127 0
-5 -127 0
-4 -126 0
-1 -127 0
-6 -13 0
-10 -11 0
-7 -15 0
-8 -13 0
-10 -12 0
-6 -11 0
-7 -12 0
-9 -149 0
-9 -150 0
-7 -149 0
-10 -149 0
-10 -146 0
-6 -147 0
-8 -150 0
-15 -52 0
-14 -55 0
-11 -54 0
-12 -53 0
-14 -53 0
-14 -52 0
-14 -54 0
-15 -76 0
-12 -79 0
-13 -77 0
-13 -76 0
-11 -80 0
-12 -80 0
-11 -79 0
-14 -138 0
-11 -136 0
-15 -137 0
-12 -136 0
-13 -138 0
-15 -140 0
-14 -140 0
-12 -142 0
-11 -145 0
-12 -145 0
-13 -144 0
-13 -142 0
-14 -144 0
-15 -144 0
-11 -165 0
-13 -165 0
-14 -164 0
-12 -161 0
-13 -161 0
-13 -162 0
-14 -162 0
-18 -24 0
-16 -23 0
-18 -23 0
-19 -21 0
-19 -25 0
-17 -21 0
-19 -22 0
-19 -51 0
-19 -54 0
-18 -51 0
-20 -53 0
-20 -55 0
-20 -51 0
-19 -52 0
-17 -59 0
-16 -60 0
-17 -58 0
-20 -59 0
-17 -57 0
-17 -60 0
-20 -58 0
-19 -115 0
-19 -113 0
-16 -114 0
-16 -111 0
-19 -114 0
-20 -115 0
-16 -112 0
-20 -132 0
-17 -134 0
-16 -132 0
-17 -132 0
-18 -132 0
-19 -133 0
-18 -135 0
-24 -88 0
-24 -87 0
-22 -90 0
-21 -86 0
-25 -90 0
-21 -88 0
-23 -89 0
-24 -140 0
-21 -139 0
-21 -138 0
-23 -136 0
-23 -140 0
-25 -138 0
-25 -137 0
-27 -62 0
-28 -62 0
-30 -61 0
-27 -61 0
-27 -65 0
-27 -63 0
-26 -61 0
-29 -67 0
-28 -67 0
-29 -66 0
-27 -69 0
-26 -66 0
-28 -70 0
-26 -67 0
-30 -96 0
-27 -96 0
-28 -98 0
-28 -100 0
-29 -96 0
-28 -96 0
-27 -99 0
-35 -172 0
-35 -174 0
-33 -171 0
-33 -174 0
-33 -173 0
-35 -173 0
-31 -172 0
-37 -64 0
-36 -65 0
-40 -64 0
-37 -63 0
-36 -63 0
-40 -62 0
-40 -63 0
-36 -123 0
-38 -123 0
-38 -121 0
-37 -121 0
-40 -123 0
-36 -121 0
-39 -123 0
-41 -83 0
-43 -84 0
-43 -85 0
-45 -83 0
-45 -85 0
-42 -84 0
-45 -82 0
-43 -109 0
-43 -107 0
-42 -107 0
-41 -107 0
-43 -110 0
-44 -109 0
-41 -110 0
-41 -140 0
-44 -138 0
-41 -136 0
-42 -136 0
-43 -140 0
-43 -136 0
-44 -139 0
-42 -147 0
-43 -147 0
-45 -149 0
-44 -146 0
-43 -146 0
-41 -147 0
-42 -149 0
-50 -121 0
-46 -122 0
-49 -125 0
-46 -123 0
-49 -124 0
-47 -121 0
-48 -125 0
-55 -110 0
-51 -107 0
-55 -106 0
-55 -107 0
-53 -109 0
-54 -106 0
-52 -110 0
-60 -65 0
-59 -63 0
-57 -64 0
-56 -64 0
-59 -64 0
-57 -63 0
-58 -62 0
-59 -136 0
-58 -139 0
-59 -137 0
-56 -136 0
-60 -136 0
-60 -139 0
-58 -140 0
-56 -153 0
-59 -153 0
-58 -152 0
-56 -154 0
-58 -153 0
-58 -151 0
-60 -153 0
-63 -103 0
-64 -105 0
-64 -101 0
-62 -103 0
-65 -104 0
-64 -102 0
-61 -102 0
-64 -141 0
-61 -145 0
-65 -142 0
-63 -145 0
-64 -144 0
-63 -141 0
-62 -142 0
-70 -72 0
-66 -72 0
-70 -75 0
-68 -71 0
-69 -71 0
-70 -71 0
-66 -73 0
-67 -119 0
-66 -118 0
-69 -119 0
-67 -120 0
-68 -118 0
-70 -118 0
-68 -117 0
-66 -151 0
-68 -154 0
-66 -155 0
-66 -152 0
-69 -153 0
-69 -154 0
-67 -152 0
-72 -81 0
-75 -84 0
-74 -82 0
-73 -85 0
-71 -83 0
-74 -83 0
-73 -83 0
-73 -128 0
-72 -130 0
-75 -128 0
-74 -126 0
-71 -129 0
-73 -126 0
-74 -127 0
-72 -152 0
-72 -151 0
-72 -154 0
-73 -155 0
-71 -154 0
-74 -155 0
-75 -155 0
-79 -95 0
-76 -92 0
-77 -92 0
-76 -95 0
-78 -94 0
-76 -93 0
-80 -91 0
-81 -95 0
-84 -92 0
-81 -91 0
-85 -95 0
-83 -92 0
-84 -93 0
-84 -91 0
-82 -129 0
-81 -129 0
-81 -130 0
-84 -130 0
-84 -127 0
-85 -126 0
-82 -126 0
-86 -105 0
-88 -104 0
-88 -103 0
-87 -105 0
-86 -101 0
-90 -102 0
-89 -102 0
-90 -111 0
-89 -114 0
-89 -112 0
-89 -115 0
-90 -115 0
-88 -115 0
-88 -112 0
-86 -141 0
-87 -143 0
-90 -142 0
-88 -141 0
-90 -145 0
-86 -145 0
-90 -141 0
-88 -170 0
-89 -170 0
-89 -169 0
-88 -167 0
-89 -167 0
-87 -166 0
-87 -167 0
-94 -99 0
-93 -100 0
-95 -98 0
-92 -99 0
-91 -98 0
-92 -98 0
-93 -96 0
-95 -102 0
-91 -103 0
-94 -102 0
-93 -104 0
-93 -103 0
-92 -102 0
-91 -102 0
-94 -143 0
-95 -145 0
-95 -143 0
-95 -141 0
-94 -144 0
-93 -144 0
-91 -142 0
-97 -126 0
-100 -126 0
-98 -130 0
-98 -126 0
-100 -128 0
-99 -129 0
-98 -129 0
-100 -168 0
-98 -168 0
-96 -168 0
-98 -170 0
-97 -169 0
-100 -167 0
-100 -170 0
-106 -113 0
-106 -115 0
-108 -111 0
-109 -113 0
-110 -111 0
-108 -114 0
-108 -113 0
-107 -172 0
-107 -173 0
-106 -172 0
-109 -173 0
-106 -174 0
-108 -174 0
-106 -175 0
-113 -167 0
-113 -169 0
-111 -168 0
-115 -167 0
-114 -166 0
-115 -170 0
-112 -169 0
-117 -122 0
-120 -121 0
-119 -122 0
-116 -124 0
-116 -121 0
-120 -123 0
-117 -125 0
-123 -175 0
-125 -173 0
-121 -173 0
-121 -172 0
-123 -174 0
-125 -175 0
-124 -172 0
-128 -172 0
-128 -175 0
-126 -173 0
-127 -174 0
-126 -175 0
-130 -172 0
-128 -171 0
-135 -159 0
-133 -157 0
-133 -158 0
-132 -158 0
-134 -160 0
-131 -158 0
-135 -156 0
-160 -162 0
-158 -163 0
-159 -162 0
-156 -162 0
-156 -165 0
-158 -162 0
-160 -164 0
-163 -172 0
-163 -173 0
-162 -174 0
-163 -171 0
-161 -175 0
-162 -173 0
-162 -171 0
